c "328947.clq"
p edge 203 2992
e 1 17
e 1 18
e 1 19
e 1 20
e 1 21
e 1 22
e 1 24
e 1 25
e 1 27
e 1 30
e 1 31
e 1 34
e 1 35
e 1 37
e 1 38
e 1 39
e 1 47
e 1 49
e 1 58
e 1 62
e 1 71
e 1 73
e 1 77
e 1 83
e 1 85
e 1 95
e 1 101
e 1 108
e 1 115
e 1 116
e 1 117
e 1 139
e 1 148
e 1 172
e 1 173
e 1 176
e 1 182
e 1 192
e 1 193
e 1 197
e 2 17
e 2 18
e 2 19
e 2 20
e 2 22
e 2 23
e 2 24
e 2 25
e 2 26
e 2 29
e 2 33
e 2 34
e 2 39
e 2 40
e 2 41
e 2 42
e 2 44
e 2 45
e 2 47
e 2 51
e 2 53
e 2 61
e 2 65
e 2 66
e 2 70
e 2 76
e 2 77
e 2 78
e 2 88
e 2 93
e 2 98
e 2 102
e 2 120
e 2 123
e 2 134
e 2 136
e 2 137
e 2 144
e 2 153
e 2 154
e 2 158
e 2 160
e 2 164
e 2 167
e 2 171
e 2 183
e 2 185
e 2 189
e 2 190
e 2 194
e 2 199
e 3 17
e 3 18
e 3 20
e 3 21
e 3 22
e 3 23
e 3 24
e 3 31
e 3 36
e 3 37
e 3 45
e 3 65
e 3 66
e 3 67
e 3 71
e 3 72
e 3 76
e 3 89
e 3 98
e 3 102
e 3 117
e 3 128
e 3 133
e 3 141
e 3 143
e 3 148
e 3 149
e 3 158
e 3 177
e 3 187
e 4 17
e 4 18
e 4 19
e 4 20
e 4 22
e 4 27
e 4 30
e 4 31
e 4 33
e 4 35
e 4 36
e 4 37
e 4 41
e 4 43
e 4 49
e 4 52
e 4 55
e 4 58
e 4 61
e 4 66
e 4 70
e 4 71
e 4 72
e 4 74
e 4 85
e 4 107
e 4 129
e 4 147
e 4 150
e 4 162
e 4 175
e 4 176
e 4 198
e 5 17
e 5 18
e 5 19
e 5 20
e 5 21
e 5 23
e 5 27
e 5 28
e 5 32
e 5 43
e 5 44
e 5 50
e 5 54
e 5 55
e 5 57
e 5 79
e 5 83
e 5 90
e 5 94
e 5 98
e 5 108
e 5 110
e 5 112
e 5 121
e 5 122
e 5 158
e 5 163
e 5 166
e 5 178
e 5 197
e 6 17
e 6 18
e 6 22
e 6 38
e 6 41
e 6 45
e 6 46
e 6 50
e 6 53
e 6 54
e 6 56
e 6 64
e 6 71
e 6 73
e 6 74
e 6 106
e 6 135
e 6 147
e 6 166
e 6 201
e 6 203
e 7 17
e 7 18
e 7 19
e 7 21
e 7 23
e 7 24
e 7 25
e 7 26
e 7 27
e 7 29
e 7 30
e 7 33
e 7 35
e 7 38
e 7 40
e 7 43
e 7 44
e 7 53
e 7 57
e 7 67
e 7 70
e 7 73
e 7 77
e 7 78
e 7 81
e 7 97
e 7 100
e 7 115
e 7 129
e 7 133
e 7 141
e 7 150
e 7 161
e 7 162
e 7 183
e 7 187
e 7 191
e 7 200
e 8 17
e 8 18
e 8 19
e 8 20
e 8 21
e 8 23
e 8 24
e 8 25
e 8 26
e 8 28
e 8 30
e 8 37
e 8 38
e 8 39
e 8 40
e 8 41
e 8 45
e 8 46
e 8 47
e 8 49
e 8 57
e 8 59
e 8 72
e 8 79
e 8 80
e 8 81
e 8 86
e 8 100
e 8 111
e 8 121
e 8 122
e 8 140
e 8 152
e 8 154
e 8 162
e 8 163
e 8 164
e 8 177
e 8 196
e 8 199
e 8 203
e 9 17
e 9 18
e 9 19
e 9 20
e 9 21
e 9 22
e 9 23
e 9 24
e 9 26
e 9 27
e 9 29
e 9 30
e 9 31
e 9 33
e 9 35
e 9 44
e 9 45
e 9 46
e 9 48
e 9 49
e 9 50
e 9 52
e 9 53
e 9 56
e 9 62
e 9 64
e 9 67
e 9 69
e 9 71
e 9 82
e 9 84
e 9 94
e 9 98
e 9 102
e 9 107
e 9 109
e 9 110
e 9 116
e 9 123
e 9 127
e 9 132
e 9 136
e 9 140
e 9 145
e 9 151
e 9 162
e 9 169
e 9 172
e 9 176
e 9 181
e 9 189
e 9 191
e 9 201
e 10 17
e 10 18
e 10 19
e 10 20
e 10 21
e 10 22
e 10 23
e 10 24
e 10 27
e 10 28
e 10 29
e 10 31
e 10 32
e 10 33
e 10 34
e 10 35
e 10 36
e 10 37
e 10 38
e 10 40
e 10 47
e 10 50
e 10 55
e 10 58
e 10 60
e 10 61
e 10 63
e 10 73
e 10 74
e 10 82
e 10 85
e 10 87
e 10 89
e 10 92
e 10 95
e 10 98
e 10 121
e 10 125
e 10 141
e 10 142
e 10 156
e 10 159
e 10 161
e 10 166
e 10 175
e 10 179
e 10 181
e 10 182
e 10 194
e 10 202
e 11 17
e 11 18
e 11 19
e 11 20
e 11 21
e 11 25
e 11 27
e 11 30
e 11 33
e 11 39
e 11 42
e 11 54
e 11 76
e 11 87
e 11 88
e 11 96
e 11 187
e 11 191
e 11 203
e 12 17
e 12 18
e 12 19
e 12 21
e 12 22
e 12 23
e 12 24
e 12 26
e 12 28
e 12 31
e 12 34
e 12 45
e 12 47
e 12 52
e 12 58
e 12 60
e 12 68
e 12 75
e 12 79
e 12 82
e 12 83
e 12 105
e 12 108
e 12 111
e 12 112
e 12 118
e 12 126
e 12 136
e 12 138
e 12 147
e 12 151
e 12 159
e 12 162
e 12 165
e 12 167
e 12 176
e 12 182
e 12 191
e 12 200
e 13 17
e 13 18
e 13 19
e 13 20
e 13 21
e 13 22
e 13 23
e 13 25
e 13 28
e 13 29
e 13 30
e 13 33
e 13 35
e 13 44
e 13 50
e 13 54
e 13 58
e 13 60
e 13 66
e 13 79
e 13 87
e 13 99
e 13 106
e 13 112
e 13 120
e 13 122
e 13 126
e 13 127
e 13 131
e 13 137
e 13 141
e 13 144
e 13 147
e 13 156
e 13 164
e 14 17
e 14 18
e 14 19
e 14 20
e 14 21
e 14 23
e 14 25
e 14 26
e 14 28
e 14 30
e 14 34
e 14 36
e 14 40
e 14 41
e 14 46
e 14 48
e 14 52
e 14 56
e 14 57
e 14 62
e 14 67
e 14 68
e 14 78
e 14 79
e 14 85
e 14 93
e 14 97
e 14 105
e 14 113
e 14 118
e 14 134
e 14 140
e 14 164
e 14 172
e 14 174
e 15 17
e 15 19
e 15 20
e 15 22
e 15 23
e 15 24
e 15 26
e 15 27
e 15 28
e 15 29
e 15 30
e 15 44
e 15 52
e 15 74
e 15 79
e 15 88
e 15 95
e 15 97
e 15 100
e 15 110
e 15 112
e 15 114
e 15 115
e 15 121
e 15 132
e 15 135
e 15 145
e 15 146
e 15 151
e 15 157
e 15 168
e 15 178
e 15 195
e 15 202
e 16 17
e 16 18
e 16 19
e 16 20
e 16 21
e 16 22
e 16 25
e 16 32
e 16 33
e 16 35
e 16 36
e 16 38
e 16 40
e 16 41
e 16 51
e 16 54
e 16 55
e 16 59
e 16 65
e 16 68
e 16 69
e 16 74
e 16 79
e 16 89
e 16 93
e 16 102
e 16 104
e 16 107
e 16 112
e 16 117
e 16 119
e 16 134
e 16 142
e 16 144
e 16 164
e 16 171
e 16 189
e 16 200
e 17 18
e 17 19
e 17 20
e 17 21
e 17 22
e 17 23
e 17 24
e 17 25
e 17 26
e 17 28
e 17 29
e 17 30
e 17 31
e 17 32
e 17 34
e 17 36
e 17 37
e 17 38
e 17 39
e 17 42
e 17 44
e 17 45
e 17 46
e 17 48
e 17 50
e 17 51
e 17 52
e 17 53
e 17 54
e 17 55
e 17 56
e 17 58
e 17 59
e 17 60
e 17 61
e 17 62
e 17 63
e 17 66
e 17 67
e 17 68
e 17 69
e 17 70
e 17 71
e 17 77
e 17 78
e 17 80
e 17 82
e 17 86
e 17 93
e 17 94
e 17 97
e 17 98
e 17 101
e 17 102
e 17 104
e 17 105
e 17 106
e 17 110
e 17 111
e 17 112
e 17 115
e 17 118
e 17 121
e 17 122
e 17 127
e 17 128
e 17 131
e 17 134
e 17 136
e 17 140
e 17 143
e 17 144
e 17 147
e 17 151
e 17 153
e 17 155
e 17 157
e 17 158
e 17 159
e 17 160
e 17 163
e 17 168
e 17 169
e 17 170
e 17 174
e 17 182
e 17 185
e 17 191
e 17 193
e 17 198
e 18 19
e 18 20
e 18 21
e 18 22
e 18 23
e 18 24
e 18 25
e 18 26
e 18 27
e 18 28
e 18 30
e 18 32
e 18 36
e 18 39
e 18 40
e 18 42
e 18 43
e 18 48
e 18 51
e 18 54
e 18 59
e 18 62
e 18 64
e 18 68
e 18 70
e 18 71
e 18 73
e 18 76
e 18 77
e 18 78
e 18 81
e 18 84
e 18 86
e 18 94
e 18 97
e 18 100
e 18 103
e 18 105
e 18 111
e 18 113
e 18 125
e 18 128
e 18 131
e 18 132
e 18 140
e 18 148
e 18 154
e 18 161
e 18 163
e 18 168
e 18 175
e 18 178
e 18 188
e 18 195
e 18 198
e 18 201
e 18 202
e 19 20
e 19 21
e 19 22
e 19 23
e 19 24
e 19 25
e 19 26
e 19 27
e 19 28
e 19 31
e 19 32
e 19 33
e 19 35
e 19 36
e 19 37
e 19 38
e 19 40
e 19 43
e 19 44
e 19 45
e 19 48
e 19 49
e 19 50
e 19 51
e 19 53
e 19 55
e 19 56
e 19 57
e 19 58
e 19 59
e 19 60
e 19 61
e 19 62
e 19 65
e 19 66
e 19 68
e 19 76
e 19 78
e 19 84
e 19 86
e 19 87
e 19 90
e 19 91
e 19 95
e 19 98
e 19 100
e 19 101
e 19 105
e 19 117
e 19 122
e 19 127
e 19 134
e 19 156
e 19 160
e 19 161
e 19 162
e 19 164
e 19 165
e 19 175
e 19 181
e 19 190
e 19 197
e 19 201
e 19 202
e 20 21
e 20 22
e 20 23
e 20 24
e 20 25
e 20 26
e 20 27
e 20 28
e 20 29
e 20 30
e 20 31
e 20 32
e 20 33
e 20 34
e 20 35
e 20 36
e 20 37
e 20 39
e 20 40
e 20 41
e 20 42
e 20 43
e 20 44
e 20 48
e 20 50
e 20 51
e 20 52
e 20 53
e 20 55
e 20 56
e 20 60
e 20 61
e 20 62
e 20 64
e 20 66
e 20 68
e 20 70
e 20 71
e 20 77
e 20 80
e 20 83
e 20 95
e 20 96
e 20 97
e 20 101
e 20 103
e 20 104
e 20 106
e 20 110
e 20 113
e 20 114
e 20 118
e 20 119
e 20 123
e 20 126
e 20 127
e 20 133
e 20 136
e 20 137
e 20 143
e 20 148
e 20 160
e 20 169
e 20 170
e 20 173
e 20 180
e 20 186
e 20 201
e 20 203
e 21 22
e 21 24
e 21 25
e 21 26
e 21 27
e 21 28
e 21 29
e 21 30
e 21 31
e 21 34
e 21 35
e 21 36
e 21 38
e 21 41
e 21 42
e 21 43
e 21 44
e 21 47
e 21 49
e 21 54
e 21 55
e 21 62
e 21 64
e 21 67
e 21 69
e 21 74
e 21 76
e 21 78
e 21 84
e 21 88
e 21 89
e 21 93
e 21 94
e 21 96
e 21 98
e 21 99
e 21 106
e 21 110
e 21 112
e 21 114
e 21 121
e 21 139
e 21 140
e 21 143
e 21 156
e 21 160
e 21 163
e 21 165
e 21 166
e 21 172
e 21 177
e 21 178
e 21 180
e 21 182
e 21 187
e 21 192
e 21 194
e 21 197
e 21 200
e 21 202
e 22 23
e 22 24
e 22 25
e 22 26
e 22 27
e 22 29
e 22 30
e 22 31
e 22 32
e 22 34
e 22 37
e 22 39
e 22 40
e 22 42
e 22 43
e 22 44
e 22 46
e 22 47
e 22 48
e 22 49
e 22 51
e 22 55
e 22 56
e 22 57
e 22 58
e 22 59
e 22 60
e 22 62
e 22 63
e 22 64
e 22 65
e 22 69
e 22 72
e 22 73
e 22 79
e 22 83
e 22 84
e 22 87
e 22 90
e 22 91
e 22 92
e 22 95
e 22 99
e 22 100
e 22 103
e 22 105
e 22 107
e 22 108
e 22 109
e 22 113
e 22 117
e 22 118
e 22 122
e 22 124
e 22 125
e 22 126
e 22 131
e 22 143
e 22 144
e 22 148
e 22 149
e 22 151
e 22 166
e 22 167
e 22 168
e 22 169
e 22 174
e 22 181
e 22 187
e 22 190
e 22 193
e 22 198
e 22 199
e 22 201
e 23 24
e 23 25
e 23 26
e 23 27
e 23 28
e 23 29
e 23 31
e 23 32
e 23 35
e 23 36
e 23 37
e 23 38
e 23 39
e 23 41
e 23 42
e 23 43
e 23 45
e 23 47
e 23 51
e 23 52
e 23 56
e 23 60
e 23 64
e 23 66
e 23 68
e 23 74
e 23 81
e 23 82
e 23 87
e 23 93
e 23 99
e 23 103
e 23 105
e 23 110
e 23 113
e 23 116
e 23 122
e 23 126
e 23 129
e 23 138
e 23 144
e 23 146
e 23 147
e 23 148
e 23 149
e 23 169
e 23 170
e 23 178
e 23 181
e 23 183
e 23 185
e 23 187
e 23 190
e 23 193
e 23 197
e 23 198
e 24 25
e 24 26
e 24 27
e 24 28
e 24 29
e 24 31
e 24 32
e 24 33
e 24 34
e 24 36
e 24 37
e 24 38
e 24 39
e 24 42
e 24 47
e 24 48
e 24 53
e 24 67
e 24 71
e 24 73
e 24 79
e 24 81
e 24 89
e 24 95
e 24 99
e 24 104
e 24 115
e 24 132
e 24 144
e 24 156
e 24 162
e 24 163
e 24 170
e 24 171
e 24 172
e 24 175
e 24 176
e 24 184
e 24 194
e 24 195
e 25 26
e 25 27
e 25 29
e 25 30
e 25 31
e 25 32
e 25 33
e 25 35
e 25 37
e 25 40
e 25 42
e 25 47
e 25 51
e 25 55
e 25 56
e 25 57
e 25 61
e 25 63
e 25 64
e 25 66
e 25 70
e 25 80
e 25 82
e 25 83
e 25 90
e 25 96
e 25 104
e 25 106
e 25 125
e 25 135
e 25 136
e 25 138
e 25 143
e 25 144
e 25 147
e 25 151
e 25 152
e 25 154
e 25 177
e 25 178
e 25 181
e 25 192
e 25 202
e 26 28
e 26 29
e 26 34
e 26 36
e 26 39
e 26 40
e 26 41
e 26 43
e 26 44
e 26 46
e 26 48
e 26 49
e 26 50
e 26 52
e 26 55
e 26 56
e 26 57
e 26 61
e 26 63
e 26 69
e 26 70
e 26 72
e 26 81
e 26 86
e 26 88
e 26 92
e 26 103
e 26 104
e 26 105
e 26 106
e 26 109
e 26 111
e 26 114
e 26 117
e 26 125
e 26 127
e 26 128
e 26 134
e 26 138
e 26 141
e 26 142
e 26 143
e 26 146
e 26 152
e 26 158
e 26 160
e 26 175
e 26 178
e 26 186
e 26 188
e 26 191
e 27 28
e 27 29
e 27 30
e 27 31
e 27 32
e 27 33
e 27 35
e 27 37
e 27 39
e 27 40
e 27 41
e 27 47
e 27 48
e 27 50
e 27 51
e 27 53
e 27 55
e 27 57
e 27 59
e 27 60
e 27 62
e 27 63
e 27 65
e 27 69
e 27 71
e 27 74
e 27 77
e 27 83
e 27 84
e 27 85
e 27 87
e 27 90
e 27 95
e 27 96
e 27 103
e 27 104
e 27 107
e 27 111
e 27 112
e 27 114
e 27 120
e 27 124
e 27 126
e 27 127
e 27 130
e 27 139
e 27 140
e 27 148
e 27 149
e 27 152
e 27 154
e 27 157
e 27 163
e 27 165
e 27 176
e 27 189
e 27 191
e 27 192
e 28 29
e 28 32
e 28 33
e 28 36
e 28 41
e 28 43
e 28 46
e 28 49
e 28 50
e 28 53
e 28 55
e 28 63
e 28 64
e 28 68
e 28 71
e 28 75
e 28 77
e 28 79
e 28 80
e 28 81
e 28 85
e 28 90
e 28 91
e 28 93
e 28 95
e 28 97
e 28 116
e 28 119
e 28 122
e 28 127
e 28 130
e 28 134
e 28 137
e 28 142
e 28 145
e 28 150
e 28 151
e 28 152
e 28 155
e 28 168
e 28 172
e 28 179
e 28 180
e 28 185
e 28 187
e 28 190
e 28 195
e 29 31
e 29 32
e 29 33
e 29 34
e 29 36
e 29 37
e 29 38
e 29 40
e 29 41
e 29 43
e 29 44
e 29 45
e 29 46
e 29 51
e 29 52
e 29 54
e 29 57
e 29 64
e 29 66
e 29 69
e 29 70
e 29 75
e 29 76
e 29 84
e 29 85
e 29 88
e 29 91
e 29 92
e 29 96
e 29 99
e 29 104
e 29 112
e 29 113
e 29 114
e 29 119
e 29 122
e 29 130
e 29 135
e 29 147
e 29 148
e 29 150
e 29 151
e 29 152
e 29 159
e 29 166
e 29 172
e 29 177
e 29 178
e 29 187
e 29 191
e 29 197
e 29 199
e 30 32
e 30 34
e 30 37
e 30 38
e 30 39
e 30 40
e 30 41
e 30 42
e 30 43
e 30 47
e 30 48
e 30 53
e 30 57
e 30 58
e 30 60
e 30 61
e 30 63
e 30 66
e 30 67
e 30 69
e 30 70
e 30 72
e 30 75
e 30 76
e 30 77
e 30 78
e 30 82
e 30 83
e 30 98
e 30 99
e 30 102
e 30 103
e 30 106
e 30 109
e 30 113
e 30 114
e 30 118
e 30 128
e 30 130
e 30 140
e 30 141
e 30 152
e 30 154
e 30 159
e 30 160
e 30 163
e 30 166
e 30 180
e 30 182
e 30 186
e 30 193
e 30 195
e 30 196
e 30 202
e 31 32
e 31 33
e 31 34
e 31 35
e 31 38
e 31 39
e 31 40
e 31 42
e 31 43
e 31 44
e 31 45
e 31 46
e 31 48
e 31 50
e 31 51
e 31 53
e 31 55
e 31 57
e 31 68
e 31 69
e 31 83
e 31 84
e 31 86
e 31 87
e 31 91
e 31 92
e 31 93
e 31 100
e 31 102
e 31 107
e 31 113
e 31 115
e 31 117
e 31 118
e 31 120
e 31 125
e 31 126
e 31 130
e 31 139
e 31 154
e 31 171
e 31 179
e 31 180
e 31 185
e 31 186
e 31 201
e 32 34
e 32 38
e 32 41
e 32 42
e 32 48
e 32 49
e 32 58
e 32 61
e 32 65
e 32 66
e 32 67
e 32 75
e 32 83
e 32 89
e 32 97
e 32 98
e 32 105
e 32 121
e 32 128
e 32 135
e 32 138
e 32 145
e 32 160
e 32 168
e 32 180
e 32 186
e 32 192
e 32 195
e 32 196
e 32 198
e 32 200
e 32 203
e 33 34
e 33 35
e 33 36
e 33 41
e 33 45
e 33 46
e 33 50
e 33 54
e 33 57
e 33 59
e 33 68
e 33 69
e 33 71
e 33 74
e 33 75
e 33 76
e 33 81
e 33 84
e 33 88
e 33 91
e 33 93
e 33 94
e 33 97
e 33 101
e 33 106
e 33 109
e 33 117
e 33 121
e 33 126
e 33 132
e 33 136
e 33 141
e 33 144
e 33 148
e 33 152
e 33 153
e 33 174
e 33 182
e 34 35
e 34 37
e 34 45
e 34 54
e 34 61
e 34 67
e 34 71
e 34 72
e 34 73
e 34 75
e 34 77
e 34 99
e 34 101
e 34 102
e 34 108
e 34 113
e 34 118
e 34 121
e 34 123
e 34 132
e 34 139
e 34 157
e 34 158
e 34 163
e 34 168
e 34 177
e 34 182
e 34 183
e 34 190
e 34 196
e 35 42
e 35 47
e 35 53
e 35 56
e 35 58
e 35 60
e 35 62
e 35 74
e 35 75
e 35 79
e 35 80
e 35 81
e 35 83
e 35 84
e 35 92
e 35 93
e 35 95
e 35 116
e 35 124
e 35 134
e 35 159
e 35 160
e 35 161
e 35 165
e 35 171
e 35 175
e 35 193
e 35 202
e 36 42
e 36 45
e 36 50
e 36 51
e 36 53
e 36 58
e 36 62
e 36 65
e 36 74
e 36 75
e 36 82
e 36 87
e 36 92
e 36 97
e 36 115
e 36 123
e 36 125
e 36 128
e 36 131
e 36 133
e 36 140
e 36 155
e 36 156
e 36 157
e 36 163
e 36 178
e 36 184
e 36 186
e 36 187
e 36 196
e 36 197
e 37 38
e 37 39
e 37 42
e 37 49
e 37 52
e 37 54
e 37 55
e 37 70
e 37 72
e 37 91
e 37 95
e 37 101
e 37 107
e 37 113
e 37 128
e 37 135
e 37 138
e 37 141
e 37 155
e 37 157
e 37 167
e 37 176
e 37 180
e 37 183
e 37 184
e 37 185
e 37 188
e 37 195
e 37 197
e 38 39
e 38 43
e 38 49
e 38 50
e 38 58
e 38 59
e 38 61
e 38 63
e 38 64
e 38 65
e 38 67
e 38 68
e 38 80
e 38 86
e 38 87
e 38 89
e 38 92
e 38 95
e 38 96
e 38 98
e 38 99
e 38 105
e 38 112
e 38 118
e 38 135
e 38 136
e 38 137
e 38 140
e 38 147
e 38 148
e 38 152
e 38 156
e 38 157
e 38 165
e 38 166
e 38 167
e 38 176
e 38 188
e 38 193
e 39 45
e 39 46
e 39 48
e 39 49
e 39 50
e 39 60
e 39 63
e 39 65
e 39 78
e 39 80
e 39 82
e 39 83
e 39 85
e 39 88
e 39 91
e 39 92
e 39 94
e 39 98
e 39 109
e 39 114
e 39 116
e 39 117
e 39 118
e 39 124
e 39 128
e 39 133
e 39 141
e 39 143
e 39 155
e 39 157
e 39 167
e 39 173
e 39 185
e 39 190
e 39 201
e 39 203
e 40 44
e 40 46
e 40 47
e 40 54
e 40 69
e 40 73
e 40 85
e 40 90
e 40 103
e 40 109
e 40 118
e 40 152
e 40 169
e 40 170
e 40 189
e 40 201
e 40 202
e 41 47
e 41 48
e 41 52
e 41 61
e 41 70
e 41 77
e 41 85
e 41 89
e 41 90
e 41 93
e 41 99
e 41 117
e 41 124
e 41 131
e 41 139
e 41 140
e 41 141
e 41 146
e 41 159
e 41 169
e 41 170
e 41 176
e 41 178
e 41 192
e 41 200
e 42 43
e 42 45
e 42 48
e 42 53
e 42 56
e 42 59
e 42 60
e 42 64
e 42 65
e 42 70
e 42 72
e 42 73
e 42 74
e 42 77
e 42 78
e 42 81
e 42 86
e 42 87
e 42 88
e 42 91
e 42 92
e 42 93
e 42 94
e 42 95
e 42 98
e 42 99
e 42 104
e 42 108
e 42 114
e 42 118
e 42 119
e 42 120
e 42 125
e 42 129
e 42 132
e 42 154
e 42 155
e 42 158
e 42 166
e 42 171
e 42 187
e 42 190
e 42 194
e 43 44
e 43 46
e 43 47
e 43 49
e 43 52
e 43 56
e 43 67
e 43 72
e 43 80
e 43 84
e 43 86
e 43 92
e 43 94
e 43 99
e 43 101
e 43 108
e 43 111
e 43 124
e 43 126
e 43 130
e 43 132
e 43 137
e 43 151
e 43 155
e 43 163
e 43 164
e 43 166
e 43 168
e 43 172
e 43 180
e 43 185
e 43 195
e 43 198
e 43 199
e 44 46
e 44 49
e 44 51
e 44 52
e 44 54
e 44 69
e 44 77
e 44 108
e 44 111
e 44 125
e 44 127
e 44 149
e 44 156
e 44 174
e 44 203
e 45 46
e 45 53
e 45 67
e 45 81
e 45 88
e 45 89
e 45 110
e 45 115
e 45 116
e 45 130
e 45 139
e 45 183
e 45 194
e 46 63
e 46 73
e 46 76
e 46 91
e 46 109
e 46 110
e 46 114
e 46 118
e 46 161
e 46 170
e 46 171
e 46 178
e 46 195
e 47 56
e 47 57
e 47 58
e 47 60
e 47 61
e 47 65
e 47 66
e 47 68
e 47 73
e 47 75
e 47 84
e 47 90
e 47 96
e 47 104
e 47 110
e 47 121
e 47 122
e 47 130
e 47 140
e 47 149
e 47 181
e 47 202
e 48 49
e 48 51
e 48 52
e 48 54
e 48 56
e 48 59
e 48 65
e 48 69
e 48 71
e 48 72
e 48 73
e 48 76
e 48 80
e 48 85
e 48 91
e 48 102
e 48 106
e 48 110
e 48 120
e 48 122
e 48 129
e 48 136
e 48 144
e 48 148
e 48 159
e 48 167
e 48 169
e 48 176
e 48 179
e 48 184
e 48 188
e 48 189
e 49 55
e 49 57
e 49 59
e 49 60
e 49 64
e 49 67
e 49 74
e 49 75
e 49 80
e 49 83
e 49 100
e 49 104
e 49 105
e 49 119
e 49 120
e 49 138
e 49 149
e 49 154
e 49 158
e 49 161
e 49 166
e 49 168
e 49 189
e 50 51
e 50 52
e 50 59
e 50 63
e 50 74
e 50 77
e 50 78
e 50 80
e 50 91
e 50 92
e 50 97
e 50 131
e 50 164
e 50 190
e 50 200
e 51 63
e 51 66
e 51 71
e 51 78
e 51 79
e 51 83
e 51 89
e 51 90
e 51 96
e 51 103
e 51 104
e 51 108
e 51 109
e 51 111
e 51 124
e 51 128
e 51 135
e 51 143
e 51 169
e 51 171
e 51 182
e 51 189
e 51 192
e 52 62
e 52 64
e 52 76
e 52 79
e 52 80
e 52 89
e 52 90
e 52 103
e 52 105
e 52 108
e 52 112
e 52 123
e 52 125
e 52 139
e 52 146
e 52 150
e 52 153
e 52 160
e 52 164
e 52 175
e 52 176
e 52 181
e 52 199
e 53 54
e 53 57
e 53 60
e 53 62
e 53 64
e 53 66
e 53 68
e 53 74
e 53 79
e 53 91
e 53 108
e 53 120
e 53 127
e 53 154
e 53 188
e 53 189
e 53 199
e 54 56
e 54 58
e 54 59
e 54 61
e 54 63
e 54 102
e 54 115
e 54 123
e 54 127
e 54 140
e 54 153
e 54 177
e 55 61
e 55 62
e 55 63
e 55 78
e 55 94
e 55 96
e 55 100
e 55 101
e 55 107
e 55 109
e 55 123
e 55 124
e 55 150
e 55 162
e 55 167
e 55 171
e 55 175
e 55 180
e 55 182
e 55 184
e 55 192
e 55 194
e 56 59
e 56 62
e 56 68
e 56 69
e 56 73
e 56 81
e 56 82
e 56 86
e 56 89
e 56 96
e 56 107
e 56 109
e 56 138
e 56 144
e 56 146
e 56 150
e 56 170
e 56 176
e 56 197
e 57 58
e 57 59
e 57 65
e 57 70
e 57 84
e 57 85
e 57 87
e 57 89
e 57 102
e 57 106
e 57 115
e 57 117
e 57 134
e 57 135
e 57 165
e 57 191
e 57 195
e 57 202
e 58 79
e 58 97
e 58 99
e 58 106
e 58 109
e 58 111
e 58 112
e 58 122
e 58 133
e 58 144
e 58 152
e 58 159
e 58 160
e 58 179
e 59 65
e 59 71
e 59 75
e 59 76
e 59 78
e 59 80
e 59 84
e 59 93
e 59 98
e 59 102
e 59 103
e 59 116
e 59 132
e 59 143
e 59 153
e 59 154
e 59 198
e 60 63
e 60 67
e 60 72
e 60 84
e 60 94
e 60 107
e 60 113
e 60 115
e 60 124
e 60 133
e 60 142
e 60 146
e 60 174
e 61 64
e 61 65
e 61 66
e 61 68
e 61 72
e 61 82
e 61 100
e 61 108
e 61 111
e 61 118
e 61 121
e 61 129
e 61 131
e 61 134
e 61 138
e 61 140
e 61 141
e 61 145
e 61 149
e 61 152
e 61 161
e 61 164
e 61 171
e 61 178
e 61 186
e 61 187
e 61 190
e 61 192
e 61 193
e 61 195
e 61 201
e 62 79
e 62 89
e 62 90
e 62 96
e 62 100
e 62 104
e 62 129
e 62 131
e 62 132
e 62 134
e 62 141
e 62 147
e 62 150
e 62 165
e 62 183
e 62 198
e 63 67
e 63 75
e 63 76
e 63 80
e 63 98
e 63 101
e 63 103
e 63 118
e 63 132
e 63 133
e 63 136
e 63 137
e 63 155
e 63 156
e 63 180
e 63 188
e 63 189
e 63 196
e 64 69
e 64 70
e 64 82
e 64 85
e 64 90
e 64 95
e 64 96
e 64 105
e 64 114
e 64 118
e 64 128
e 64 137
e 64 142
e 64 145
e 64 146
e 64 148
e 64 149
e 64 167
e 64 169
e 64 170
e 64 176
e 64 179
e 64 197
e 65 70
e 65 75
e 65 77
e 65 78
e 65 82
e 65 86
e 65 89
e 65 92
e 65 99
e 65 107
e 65 111
e 65 112
e 65 114
e 65 123
e 65 135
e 65 147
e 65 162
e 65 167
e 65 170
e 65 172
e 65 174
e 65 176
e 65 183
e 65 200
e 65 203
e 66 72
e 66 73
e 66 80
e 66 81
e 66 82
e 66 129
e 66 136
e 66 145
e 66 162
e 66 166
e 66 181
e 66 183
e 66 199
e 66 200
e 67 75
e 67 86
e 67 88
e 67 96
e 67 101
e 67 106
e 67 114
e 67 121
e 67 128
e 67 129
e 67 130
e 67 134
e 67 136
e 67 141
e 67 157
e 67 168
e 67 169
e 67 173
e 67 195
e 67 201
e 68 74
e 68 76
e 68 82
e 68 88
e 68 93
e 68 101
e 68 103
e 68 119
e 68 135
e 68 145
e 68 157
e 68 162
e 68 170
e 68 178
e 68 179
e 68 186
e 69 72
e 69 73
e 69 81
e 69 86
e 69 87
e 69 92
e 69 94
e 69 97
e 69 104
e 69 111
e 69 115
e 69 130
e 69 152
e 69 178
e 69 185
e 69 188
e 69 196
e 69 201
e 70 84
e 70 87
e 70 91
e 70 97
e 70 130
e 70 131
e 70 138
e 70 139
e 70 144
e 70 146
e 70 151
e 70 163
e 70 172
e 70 179
e 70 197
e 70 199
e 70 203
e 71 72
e 71 75
e 71 77
e 71 85
e 71 90
e 71 99
e 71 102
e 71 112
e 71 116
e 71 119
e 71 126
e 71 127
e 71 138
e 71 142
e 71 145
e 71 146
e 71 168
e 71 170
e 71 179
e 71 180
e 71 183
e 71 184
e 71 191
e 71 194
e 72 76
e 72 95
e 72 110
e 72 111
e 72 114
e 72 116
e 72 125
e 72 131
e 72 137
e 72 145
e 72 167
e 72 173
e 72 180
e 72 181
e 72 199
e 73 86
e 73 88
e 73 96
e 73 127
e 73 135
e 73 142
e 73 145
e 73 159
e 73 168
e 73 172
e 73 183
e 73 184
e 73 194
e 74 81
e 74 86
e 74 90
e 74 91
e 74 92
e 74 112
e 74 120
e 74 129
e 74 137
e 74 153
e 74 169
e 74 175
e 74 190
e 74 196
e 75 88
e 75 91
e 75 119
e 75 150
e 75 162
e 75 184
e 75 186
e 76 83
e 76 86
e 76 100
e 76 102
e 76 116
e 76 135
e 76 137
e 76 156
e 76 164
e 76 179
e 77 78
e 77 88
e 77 90
e 77 100
e 77 106
e 77 110
e 77 123
e 77 139
e 77 153
e 77 165
e 77 174
e 77 182
e 77 185
e 77 202
e 78 83
e 78 94
e 78 110
e 78 113
e 78 124
e 78 129
e 78 133
e 78 141
e 78 151
e 78 162
e 78 165
e 78 172
e 78 174
e 78 182
e 78 184
e 78 189
e 78 192
e 79 81
e 79 82
e 79 85
e 79 88
e 79 92
e 79 99
e 79 100
e 79 101
e 79 103
e 79 108
e 79 114
e 80 87
e 80 89
e 80 93
e 80 96
e 80 101
e 80 103
e 80 105
e 80 108
e 80 112
e 80 122
e 80 123
e 80 125
e 80 130
e 80 142
e 80 174
e 80 181
e 80 187
e 80 197
e 80 199
e 81 114
e 81 123
e 81 146
e 81 166
e 81 169
e 81 177
e 81 183
e 82 119
e 82 126
e 82 150
e 82 153
e 82 167
e 82 186
e 82 190
e 82 194
e 82 201
e 83 85
e 83 121
e 83 123
e 83 152
e 83 153
e 83 165
e 83 175
e 84 87
e 84 127
e 84 145
e 84 170
e 84 177
e 84 184
e 84 189
e 84 192
e 85 106
e 85 109
e 85 128
e 85 162
e 85 165
e 85 170
e 85 203
e 86 93
e 86 105
e 86 111
e 86 119
e 86 124
e 86 125
e 86 134
e 86 149
e 86 156
e 86 163
e 86 173
e 86 193
e 87 94
e 87 102
e 87 109
e 87 124
e 87 130
e 87 131
e 87 148
e 87 156
e 87 159
e 87 161
e 87 168
e 87 190
e 88 100
e 88 115
e 88 143
e 88 173
e 88 174
e 89 94
e 89 97
e 89 107
e 89 109
e 89 130
e 89 132
e 89 150
e 89 186
e 89 191
e 90 94
e 90 109
e 90 120
e 90 152
e 90 166
e 90 168
e 90 186
e 90 192
e 90 201
e 90 203
e 91 95
e 91 97
e 91 107
e 91 119
e 91 129
e 91 151
e 91 160
e 91 161
e 91 171
e 91 173
e 91 184
e 92 145
e 92 167
e 92 172
e 92 175
e 93 137
e 93 139
e 93 143
e 93 202
e 94 124
e 94 127
e 94 143
e 94 144
e 94 147
e 94 150
e 94 154
e 94 163
e 94 194
e 95 98
e 95 102
e 95 119
e 95 133
e 95 140
e 95 147
e 95 155
e 95 165
e 95 177
e 95 189
e 96 101
e 96 105
e 96 107
e 96 108
e 96 121
e 96 144
e 96 146
e 96 150
e 96 151
e 96 181
e 96 185
e 96 199
e 97 101
e 97 116
e 97 138
e 97 139
e 97 146
e 97 153
e 97 155
e 97 180
e 98 100
e 98 103
e 98 104
e 98 106
e 98 125
e 98 134
e 98 155
e 98 195
e 99 113
e 99 115
e 99 139
e 99 148
e 99 153
e 99 158
e 99 178
e 99 202
e 100 113
e 100 116
e 100 128
e 100 134
e 100 137
e 100 173
e 101 108
e 101 115
e 101 126
e 101 158
e 101 160
e 101 169
e 101 177
e 101 179
e 102 104
e 102 120
e 102 138
e 102 147
e 102 155
e 102 159
e 102 179
e 102 188
e 103 125
e 103 135
e 103 173
e 104 110
e 104 146
e 104 151
e 104 157
e 104 164
e 104 183
e 104 188
e 105 107
e 105 116
e 105 117
e 105 123
e 105 132
e 105 159
e 105 168
e 105 175
e 105 181
e 105 188
e 105 192
e 105 197
e 105 203
e 106 107
e 106 117
e 106 124
e 106 132
e 106 133
e 106 179
e 106 203
e 107 117
e 107 120
e 107 123
e 107 137
e 107 143
e 107 157
e 107 172
e 107 176
e 107 188
e 107 195
e 108 111
e 108 115
e 108 120
e 108 128
e 108 131
e 108 138
e 108 150
e 108 156
e 108 158
e 108 159
e 108 167
e 108 177
e 108 190
e 108 191
e 108 198
e 108 200
e 109 110
e 109 113
e 109 117
e 109 119
e 109 120
e 109 125
e 109 132
e 109 136
e 109 142
e 109 147
e 109 149
e 109 174
e 109 179
e 109 194
e 109 196
e 110 117
e 110 133
e 110 163
e 110 186
e 110 196
e 111 113
e 111 116
e 111 131
e 111 136
e 111 149
e 111 178
e 111 182
e 111 200
e 112 120
e 112 121
e 112 135
e 112 136
e 112 137
e 112 158
e 112 173
e 112 182
e 113 119
e 113 122
e 113 123
e 113 133
e 113 134
e 113 142
e 113 165
e 113 171
e 113 199
e 114 119
e 114 126
e 114 135
e 114 146
e 114 187
e 115 116
e 115 122
e 115 141
e 115 149
e 115 169
e 115 186
e 116 122
e 116 126
e 116 142
e 116 150
e 116 164
e 116 193
e 116 198
e 117 121
e 117 126
e 117 129
e 117 142
e 117 145
e 117 155
e 117 160
e 117 164
e 117 166
e 117 202
e 118 120
e 118 124
e 118 131
e 118 133
e 118 140
e 118 141
e 118 161
e 118 196
e 119 132
e 119 139
e 119 171
e 119 183
e 119 188
e 119 195
e 119 203
e 120 126
e 120 127
e 120 196
e 120 200
e 121 144
e 121 152
e 121 154
e 121 179
e 122 173
e 122 199
e 123 124
e 123 155
e 123 169
e 124 128
e 124 129
e 124 130
e 124 131
e 124 133
e 124 139
e 124 143
e 124 145
e 124 153
e 124 155
e 124 160
e 124 174
e 124 186
e 125 133
e 125 137
e 125 138
e 125 145
e 125 149
e 125 150
e 125 187
e 126 129
e 126 130
e 126 136
e 126 138
e 126 146
e 126 185
e 127 149
e 127 156
e 127 175
e 128 129
e 128 156
e 128 188
e 128 193
e 129 148
e 129 159
e 129 174
e 129 175
e 130 142
e 130 148
e 130 155
e 130 157
e 130 162
e 130 170
e 130 181
e 130 198
e 131 149
e 131 154
e 131 183
e 132 167
e 133 162
e 134 139
e 134 142
e 134 147
e 134 153
e 134 165
e 134 196
e 134 198
e 135 200
e 136 158
e 136 180
e 136 181
e 136 184
e 136 185
e 137 174
e 137 190
e 138 151
e 138 161
e 138 172
e 138 177
e 138 191
e 138 197
e 138 201
e 139 158
e 139 161
e 139 171
e 139 186
e 139 200
e 140 156
e 140 161
e 141 142
e 141 143
e 141 194
e 142 151
e 142 165
e 142 170
e 142 197
e 143 157
e 143 163
e 143 173
e 143 185
e 143 187
e 143 193
e 143 196
e 144 158
e 144 189
e 146 154
e 146 161
e 146 182
e 146 188
e 147 164
e 147 173
e 147 194
e 148 154
e 148 179
e 149 153
e 149 157
e 149 164
e 149 184
e 149 185
e 150 153
e 150 158
e 150 174
e 150 176
e 150 181
e 151 160
e 151 166
e 152 161
e 152 167
e 154 157
e 154 159
e 154 172
e 154 175
e 154 184
e 154 194
e 155 168
e 155 177
e 156 173
e 156 194
e 157 171
e 157 177
e 158 183
e 159 193
e 159 198
e 159 199
e 159 203
e 161 198
e 162 171
e 162 184
e 163 192
e 163 201
e 164 180
e 165 189
e 166 177
e 166 190
e 166 191
e 166 192
e 167 195
e 168 184
e 170 173
e 170 196
e 171 182
e 171 189
e 174 200
e 175 193
e 176 180
e 176 192
e 176 197
e 179 191
e 180 185
e 181 188
e 182 187
e 182 196
e 184 193
e 188 191
e 189 199
e 190 193
e 190 202
e 193 203
e 194 198
e 199 200
